
Gurobi 11.0.3 (linux64) logging started Mon 18 Nov 2024 08:12:55 PM CST

Set parameter LogFile to value "/home/dlcole3/graph_abstraction/hierarchical_graphs/git_storage/CS1/HP_low_reserves/gurobi_logs/serial/logfile_ST7_4.log"

Gurobi 11.0.3 (linux64) logging started Mon 18 Nov 2024 08:14:22 PM CST

Set parameter LogFile to value "/home/dlcole3/graph_abstraction/hierarchical_graphs/git_storage/CS1/HP_low_reserves/gurobi_logs/serial/logfile_ST7_4.log"
Gurobi Optimizer version 11.0.3 build v11.0.3rc0 (linux64 - "Ubuntu 18.04.3 LTS")

CPU model: Intel(R) Xeon(R) CPU E5-2698 v4 @ 2.20GHz, instruction set [SSE2|AVX|AVX2]
Thread count: 40 physical cores, 80 logical processors, using up to 20 threads

Optimize a model with 29168 rows, 50688 columns and 136175 nonzeros
Model fingerprint: 0x29aee873
Variable types: 46944 continuous, 3744 integer (3744 binary)
Coefficient statistics:
  Matrix range     [6e-01, 2e+04]
  Objective range  [2e+00, 2e+04]
  Bounds range     [5e-02, 2e+05]
  RHS range        [5e-02, 7e+03]
Presolve removed 14432 rows and 38708 columns
Presolve time: 0.33s
Presolved: 14736 rows, 11980 columns, 62733 nonzeros
Variable types: 9012 continuous, 2968 integer (2968 binary)
Found heuristic solution: objective 182459.01931
Found heuristic solution: objective 180077.19382
Found heuristic solution: objective 152641.48508

Root relaxation: objective 5.026608e+04, 7496 iterations, 0.29 seconds (0.21 work units)

    Nodes    |    Current Node    |     Objective Bounds      |     Work
 Expl Unexpl |  Obj  Depth IntInf | Incumbent    BestBd   Gap | It/Node Time

     0     0 50266.0765    0    5 152641.485 50266.0765  67.1%     -    1s
H    0     0                    52807.805587 50266.0765  4.81%     -    1s
H    0     0                    52807.805561 50266.0765  4.81%     -    1s
     0     0 50266.0765    0    5 52807.8056 50266.0765  4.81%     -    1s
     0     0 50266.0765    0    2 52807.8056 50266.0765  4.81%     -    2s
     0     0 50335.4746    0    4 52807.8056 50335.4746  4.68%     -    2s
     0     0 50589.6318    0    6 52807.8056 50589.6318  4.20%     -    2s
     0     0 50589.6318    0    8 52807.8056 50589.6318  4.20%     -    2s
H    0     0                    52807.805429 50589.6318  4.20%     -    2s
H    0     0                    51485.591770 50589.6318  1.74%     -    2s
     0     0 50589.6318    0    8 51485.5918 50589.6318  1.74%     -    2s
     0     2 50589.6318    0    8 51485.5918 50589.6318  1.74%     -    2s
H  107    63                    50938.253620 50589.6318  0.68%   7.1    3s
H  204    39                    50832.756998 50589.6318  0.48%   5.8    3s
H  205    39                    50829.906998 50589.6318  0.47%   5.8    3s
*  259    14              16    50829.889944 50589.6318  0.47%   5.0    3s

Cutting planes:
  Gomory: 3

Explored 313 nodes (15269 simplex iterations) in 3.57 seconds (2.12 work units)
Thread count was 20 (of 80 available processors)

Solution count 10: 50829.9 50832.8 50938.3 ... 685712

Optimal solution found (tolerance 3.00e-03)
Best objective 5.082988994491e+04, best bound 5.082988994360e+04, gap 0.0000%

User-callback calls 2296, time in user-callback 0.00 sec
